NAME          DCAP_3_4_2_200_SS97
ROWS
 N  OBJ
 L  CON1
 L  CON2
 L  CON3
 L  CON4
 L  CON5
 L  CON6
 L  CON7
 L  CON8
 L  CON9
 L  CON10
 L  CON11
 L  CON12
 E  CON13
 E  CON14
 E  CON15
 E  CON16
 E  CON17
 E  CON18
 E  CON19
 E  CON20
COLUMNS
    x[1,1]    OBJ       6.180167      CON1      1.000000    
    x[1,1]    CON7      -1.000000     CON8      -1.000000   
    x[1,2]    OBJ       5.039546      CON2      1.000000    
    x[1,2]    CON8      -1.000000   
    x[2,1]    OBJ       6.732585      CON3      1.000000    
    x[2,1]    CON9      -1.000000     CON10     -1.000000   
    x[2,2]    OBJ       7.443064      CON4      1.000000    
    x[2,2]    CON10     -1.000000   
    x[3,1]    OBJ       6.563535      CON5      1.000000    
    x[3,1]    CON11     -1.000000     CON12     -1.000000   
    x[3,2]    OBJ       6.054841      CON6      1.000000    
    x[3,2]    CON12     -1.000000   
    MARKER    'MARKER'                'INTORG'
    u[1,1]    OBJ       48.076654     CON1      -1.000000   
    u[1,2]    OBJ       49.466655     CON2      -1.000000   
    u[2,1]    OBJ       49.996186     CON3      -1.000000   
    u[2,2]    OBJ       32.230043     CON4      -1.000000   
    u[3,1]    OBJ       20.066487     CON5      -1.000000   
    u[3,2]    OBJ       27.484319     CON6      -1.000000   
    y[1,1,1]  OBJ       8.191440      CON7      1.039510    
    y[1,1,1]  CON13     1.000000    
    y[1,1,2]  OBJ       9.915700      CON8      0.889022    
    y[1,1,2]  CON14     1.000000    
    y[1,2,1]  OBJ       8.998496      CON7      1.407576    
    y[1,2,1]  CON15     1.000000    
    y[1,2,2]  OBJ       6.632028      CON8      1.209599    
    y[1,2,2]  CON16     1.000000    
    y[1,3,1]  OBJ       7.116928      CON7      1.049301    
    y[1,3,1]  CON17     1.000000    
    y[1,3,2]  OBJ       9.290462      CON8      1.272678    
    y[1,3,2]  CON18     1.000000    
    y[1,4,1]  OBJ       9.076865      CON7      0.579152    
    y[1,4,1]  CON19     1.000000    
    y[1,4,2]  OBJ       5.482009      CON8      0.765977    
    y[1,4,2]  CON20     1.000000    
    y[2,1,1]  OBJ       5.407880      CON9      1.039510    
    y[2,1,1]  CON13     1.000000    
    y[2,1,2]  OBJ       5.078291      CON10     0.889022    
    y[2,1,2]  CON14     1.000000    
    y[2,2,1]  OBJ       8.126231      CON9      1.407576    
    y[2,2,1]  CON15     1.000000    
    y[2,2,2]  OBJ       7.945239      CON10     1.209599    
    y[2,2,2]  CON16     1.000000    
    y[2,3,1]  OBJ       9.883690      CON9      1.049301    
    y[2,3,1]  CON17     1.000000    
    y[2,3,2]  OBJ       7.962852      CON10     1.272678    
    y[2,3,2]  CON18     1.000000    
    y[2,4,1]  OBJ       9.298711      CON9      0.579152    
    y[2,4,1]  CON19     1.000000    
    y[2,4,2]  OBJ       6.037114      CON10     0.765977    
    y[2,4,2]  CON20     1.000000    
    y[3,1,1]  OBJ       9.748673      CON11     1.039510    
    y[3,1,1]  CON13     1.000000    
    y[3,1,2]  OBJ       8.692480      CON12     0.889022    
    y[3,1,2]  CON14     1.000000    
    y[3,2,1]  OBJ       6.617752      CON11     1.407576    
    y[3,2,1]  CON15     1.000000    
    y[3,2,2]  OBJ       7.046087      CON12     1.209599    
    y[3,2,2]  CON16     1.000000    
    y[3,3,1]  OBJ       8.616442      CON11     1.049301    
    y[3,3,1]  CON17     1.000000    
    y[3,3,2]  OBJ       5.527397      CON12     1.272678    
    y[3,3,2]  CON18     1.000000    
    y[3,4,1]  OBJ       7.750426      CON11     0.579152    
    y[3,4,1]  CON19     1.000000    
    y[3,4,2]  OBJ       8.048138      CON12     0.765977    
    y[3,4,2]  CON20     1.000000    
    z[1,1]    OBJ       815.441786    CON13     1.000000    
    z[1,2]    OBJ       801.270986    CON14     1.000000    
    z[2,1]    OBJ       902.208809    CON15     1.000000    
    z[2,2]    OBJ       663.526438    CON16     1.000000    
    z[3,1]    OBJ       664.729915    CON17     1.000000    
    z[3,2]    OBJ       735.241199    CON18     1.000000    
    z[4,1]    OBJ       859.260458    CON19     1.000000    
    z[4,2]    OBJ       752.069192    CON20     1.000000    
    MARKER    'MARKER'                 'INTEND'
RHS
    RHS       CON1      -0.000000     CON2      -0.000000   
    RHS       CON3      -0.000000     CON4      -0.000000   
    RHS       CON5      -0.000000     CON6      -0.000000   
    RHS       CON7      -0.000000     CON8      -0.000000   
    RHS       CON9      -0.000000     CON10     -0.000000   
    RHS       CON11     -0.000000     CON12     -0.000000   
    RHS       CON13     1.000000      CON14     1.000000    
    RHS       CON15     1.000000      CON16     1.000000    
    RHS       CON17     1.000000      CON18     1.000000    
    RHS       CON19     1.000000      CON20     1.000000    
BOUNDS
 BV BOUND     u[1,1]  
 BV BOUND     u[1,2]  
 BV BOUND     u[2,1]  
 BV BOUND     u[2,2]  
 BV BOUND     u[3,1]  
 BV BOUND     u[3,2]  
 BV BOUND     y[1,1,1]
 BV BOUND     y[1,1,2]
 BV BOUND     y[1,2,1]
 BV BOUND     y[1,2,2]
 BV BOUND     y[1,3,1]
 BV BOUND     y[1,3,2]
 BV BOUND     y[1,4,1]
 BV BOUND     y[1,4,2]
 BV BOUND     y[2,1,1]
 BV BOUND     y[2,1,2]
 BV BOUND     y[2,2,1]
 BV BOUND     y[2,2,2]
 BV BOUND     y[2,3,1]
 BV BOUND     y[2,3,2]
 BV BOUND     y[2,4,1]
 BV BOUND     y[2,4,2]
 BV BOUND     y[3,1,1]
 BV BOUND     y[3,1,2]
 BV BOUND     y[3,2,1]
 BV BOUND     y[3,2,2]
 BV BOUND     y[3,3,1]
 BV BOUND     y[3,3,2]
 BV BOUND     y[3,4,1]
 BV BOUND     y[3,4,2]
 BV BOUND     z[1,1]  
 BV BOUND     z[1,2]  
 BV BOUND     z[2,1]  
 BV BOUND     z[2,2]  
 BV BOUND     z[3,1]  
 BV BOUND     z[3,2]  
 BV BOUND     z[4,1]  
 BV BOUND     z[4,2]  
ENDATA
